200
1000
395
395
395
395
395
394
394
394
393
393
393
393
393
393
392
390
389
388
388
388
387
386
386
385
384
383
383
382
380
380
379
379
378
378
377
375
375
374
374
373
372
372
372
371
370
368
368
367
367
366
366
365
365
363
362
361
360
360
360
359
357
357
356
355
355
350
350
349
348
348
348
347
347
347
347
347
346
346
346
346
345
345
344
344
344
343
343
343
343
342
341
341
340
338
337
336
336
335
335
335
334
333
333
332
331
330
329
329
328
328
327
327
326
326
325
324
323
323
322
322
321
321
320
320
320
320
316
316
316
315
315
315
313
312
312
311
309
309
308
306
305
305
305
305
303
302
302
302
300
300
299
298
298
298
297
297
296
296
295
295
293
293
291
291
290
290
290
290
287
286
286
286
286
282
281
281
281
280
280
279
275
275
274
274
274
274
273
272
272
271
271
270
270
269
269
269
268
267
266
266
